Mack/Bortfeldt(2008)
Bin-Packing-Problem
BP-RG/SBSBPP/SSSCSP
Testcase-ID	7
Problem-ID	31
no_item_types	10
no_items	1283
CONTAINER_DATA (l,w,h)	587	233	1
ITEMS_DATA:
Type	x	y	z	no_items
1	60	49	1	123
2	55	24	1	113
3	46	27	1	119
4	36	23	1	123
5	54	15	1	132
6	55	12	1	145
7	40	16	1	120
8	42	15	1	142
9	33	15	1	128
10	35	12	1	138
